
Gurobi 11.0.1 (win64) logging started Fri Mar 22 09:08:49 2024

Set parameter LogFile to value "C:\Projetos\Job_Rotation_Algorithms\Outputs\GurobiLogs\gurobi_log-output-35_hes-c190-CostaMirallesModel-NoExtraConstraint-2.log"
Gurobi Optimizer version 11.0.1 build v11.0.1rc0 (win64 - Windows 10.0 (19045.2))

CPU model: 11th Gen Intel(R) Core(TM) i7-1165G7 @ 2.80GHz, instruction set [SSE2|AVX|AVX2|AVX512]
Thread count: 4 physical cores, 8 logical processors, using up to 1 threads

WLS license 901039 - registered to Bitka Analytics
Optimize a model with 476 rows, 907 columns and 7383 nonzeros
Model fingerprint: 0xe0986d78
Variable types: 2 continuous, 905 integer (905 binary)
Coefficient statistics:
  Matrix range     [1e+00, 1e+02]
  Objective range  [1e+00, 1e+00]
  Bounds range     [1e+00, 4e+02]
  RHS range        [1e+00, 4e+02]
Presolve removed 135 rows and 91 columns
Presolve time: 0.05s
Presolved: 341 rows, 816 columns, 5005 nonzeros
Variable types: 0 continuous, 816 integer (815 binary)

Root relaxation: objective 5.600000e+01, 416 iterations, 0.02 seconds (0.01 work units)

    Nodes    |    Current Node    |     Objective Bounds      |     Work
 Expl Unexpl |  Obj  Depth IntInf | Incumbent    BestBd   Gap | It/Node Time

     0     0   56.00000    0   15          -   56.00000      -     -    0s
     0     0   56.00000    0  108          -   56.00000      -     -    0s
     0     0   56.00000    0   83          -   56.00000      -     -    0s
     0     0   56.00000    0   21          -   56.00000      -     -    0s
     0     0   56.00000    0   34          -   56.00000      -     -    0s
     0     0   56.00000    0   21          -   56.00000      -     -    0s
     0     0   56.00000    0   77          -   56.00000      -     -    0s
     0     0   56.00000    0   26          -   56.00000      -     -    0s
     0     0   56.00000    0   25          -   56.00000      -     -    0s
     0     2   56.00000    0   25          -   56.00000      -     -    0s
H  658   127                      51.0000000   56.00000  9.80%  68.1    1s
H  658   117                      52.0000000   56.00000  7.69%  68.1    1s
  1569   174   56.00000   12  186   52.00000   56.00000  7.69%   105    5s
  2272   156   56.00000    8  182   52.00000   56.00000  7.69%   118   10s

Cutting planes:
  Gomory: 2
  Cover: 1320
  Implied bound: 20
  Clique: 77
  MIR: 56
  StrongCG: 12
  GUB cover: 12
  Inf proof: 6
  Zero half: 2
  RLT: 10
  BQP: 1

Explored 3213 nodes (392949 simplex iterations) in 13.64 seconds (13.76 work units)
Thread count was 1 (of 8 available processors)

Solution count 2: 52 51 

Optimal solution found (tolerance 1.00e-03)
Best objective 5.200000000000e+01, best bound 5.200000000000e+01, gap 0.0000%
